solution status: optimal solution found
objective value:                                  182
u1_1_8                                              1 	(obj:16)
u2_2_32                              1.00000000000001 	(obj:45)
u3_1_21                                             1 	(obj:35)
u4_2_17                              1.00000000000001 	(obj:22)
u5_2_22                              1.00000000000001 	(obj:32)
u6_1_0                                              1 	(obj:8)
u7_2_8                               1.00000000000001 	(obj:16)
u8_2_0                               1.00000000000001 	(obj:8)
